OPL/uncapacitated_no_dispose/temp.dat
T = 30;
Dn = [18, 19, 8, 14, 16, 9, 10, 17, 21, 17, 14, 17, 14, 22, 20, 14, 8, 21, 17, 16, 10, 10, 16, 22, 13, 13, 16, 21, 21, 18];
Ds = [12, 13, 14, 11, 14, 5, 11, 11, 10, 14, 10, 15, 14, 9, 6, 11, 11, 5, 11, 11, 12, 15, 10, 13, 11, 6, 7, 9, 14, 15];
R = [13, 12, 22, 27, 19, 18, 25, 20, 12, 26, 19, 23, 23, 19, 17, 18, 23, 25, 20, 12, 23, 13, 22, 19, 13, 15, 16, 26, 25, 25];
f = [1979, 2006, 1983, 1981, 2030, 1972, 2005, 2007, 2013, 1989, 2024, 2000, 2020, 2005, 2022, 2024, 2012, 1978, 1985, 2022, 2006, 2026, 2017, 2024, 1997, 1987, 1988, 2030, 2015, 1979];
pn = [55, 58, 52, 60, 53, 50, 53, 57, 60, 59, 52, 57, 57, 56, 60, 59, 56, 54, 50, 60, 58, 55, 53, 58, 50, 56, 55, 53, 50, 55];
ps = [35, 34, 34, 33, 34, 31, 32, 35, 31, 30, 35, 36, 35, 31, 32, 32, 36, 32, 33, 35, 30, 30, 31, 30, 33, 34, 33, 35, 34, 34];
hn = [16, 17, 15, 15, 13, 13, 15, 14, 14, 17, 17, 15, 14, 16, 13, 15, 16, 17, 14, 14, 13, 13, 15, 16, 16, 13, 13, 17, 14, 13];
hs = [9, 8, 9, 8, 8, 8, 8, 10, 8, 8, 9, 10, 8, 9, 8, 8, 8, 9, 8, 8, 9, 8, 9, 8, 10, 8, 10, 9, 9, 8];
hr = [4, 3, 3, 3, 3, 5, 4, 4, 4, 3, 4, 5, 3, 4, 4, 4, 5, 3, 4, 3, 5, 5, 5, 5, 3, 5, 5, 4, 4, 4];
